
Gurobi 10.0.1 (win64) logging started Mon May  1 20:54:17 2023

Set parameter LogFile to value "logFiles/N-1L-C/N-1L-14U-23F-23V-240D-basic.log"
Gurobi Optimizer version 10.0.1 build v10.0.1rc0 (win64)

CPU model: Intel(R) Core(TM) i7-10700 CPU @ 2.90GHz, instruction set [SSE2|AVX|AVX2]
Thread count: 8 physical cores, 16 logical processors, using up to 16 threads

Optimize a model with 192534 rows, 2145655 columns and 13502729 nonzeros
Model fingerprint: 0xc751c24d
Variable types: 6588 continuous, 2139067 integer (2139067 binary)
Coefficient statistics:
  Matrix range     [1e+00, 2e+05]
  Objective range  [4e+01, 3e+07]
  Bounds range     [1e+00, 1e+00]
  RHS range        [1e+00, 3e+06]
Presolve removed 99675 rows and 62983 columns (presolve time = 5s) ...
Presolve removed 109054 rows and 62983 columns (presolve time = 10s) ...
Presolve removed 109106 rows and 63097 columns (presolve time = 15s) ...
Presolve removed 109145 rows and 63110 columns (presolve time = 20s) ...
Presolve removed 110407 rows and 64300 columns
Presolve time: 24.71s
Presolved: 82127 rows, 2081355 columns, 12086757 nonzeros
Variable types: 3692 continuous, 2077663 integer (2077663 binary)
Deterministic concurrent LP optimizer: primal simplex, dual simplex, and barrier
Showing barrier log only...

Root barrier log...

Elapsed ordering time = 5s
Ordering time: 6.94s

Barrier statistics:
 AA' NZ     : 5.607e+06
 Factor NZ  : 2.540e+07 (roughly 1.0 GB of memory)
 Factor Ops : 6.014e+10 (roughly 1 second per iteration)
 Threads    : 5

                  Objective                Residual
Iter       Primal          Dual         Primal    Dual     Compl     Time
   0  -9.73031419e+16  2.29325546e+12  1.10e+10 5.49e+04  2.38e+11    54s
   1  -1.75330452e+16  3.77772819e+12  1.98e+09 1.43e+05  4.32e+10    57s
   2  -4.10996017e+14  2.78778914e+12  4.70e+07 2.10e-09  1.03e+09    60s

Barrier performed 2 iterations in 60.19 seconds (90.95 work units)
Time limit reached



Root relaxation: time limit, 0 iterations, 28.32 seconds (14.39 work units)

Explored 1 nodes (0 simplex iterations) in 60.62 seconds (78.62 work units)
Thread count was 16 (of 16 available processors)

Solution count 0

Time limit reached
Best objective -, best bound 1.557424915227e+13, gap -
IIS computation: initial model status unknown, solving to determine model status
Presolve removed 99758 rows and 64310 columns (presolve time = 5s) ...
Presolve removed 110439 rows and 64310 columns (presolve time = 10s) ...
Presolve removed 110439 rows and 64701 columns (presolve time = 15s) ...
Presolve removed 110439 rows and 64701 columns (presolve time = 20s) ...
Presolve removed 110439 rows and 64701 columns (presolve time = 25s) ...
Presolve removed 110407 rows and 64669 columns
Presolve time: 25.15s
Presolved: 82127 rows, 2080986 columns, 12084543 nonzeros
Variable types: 3692 continuous, 2077294 integer (2077294 binary)
Deterministic concurrent LP optimizer: primal simplex, dual simplex, and barrier
Showing barrier log only...

Root barrier log...

Ordering time: 4.39s

Barrier statistics:
 AA' NZ     : 5.607e+06
 Factor NZ  : 2.540e+07 (roughly 1.0 GB of memory)
 Factor Ops : 6.014e+10 (roughly 1 second per iteration)
 Threads    : 5

                  Objective                Residual
Iter       Primal          Dual         Primal    Dual     Compl     Time
   0  -0.00000000e+00  1.67966051e+05  1.10e+10 0.00e+00  1.58e+04    51s
   1  -0.00000000e+00  2.75784879e+05  1.64e+09 4.36e-03  2.37e+03    53s
   2  -0.00000000e+00  1.95581618e+05  9.89e+06 1.39e-16  1.44e+01    56s
   3  -0.00000000e+00  1.56442744e+05  2.22e+06 1.11e-16  3.33e+00    59s
   4  -0.00000000e+00  3.52736165e+04  2.71e+05 5.44e-08  1.20e-01    61s

Barrier performed 4 iterations in 61.22 seconds (96.14 work units)
Time limit reached



Root relaxation: time limit, 0 iterations, 27.35 seconds (19.25 work units)

Explored 1 nodes (0 simplex iterations) in 61.55 seconds (85.40 work units)
Thread count was 16 (of 16 available processors)

Solution count 0

Time limit reached
Best objective -, best bound -0.000000000000e+00, gap -
IIS runtime: 61.70 seconds (85.40 work units)
